s td 100 11 110
b 1 1 2 12
b 2 10 11 22
b 3 89 100 101
b 4 99 109 110
b 5 2 3 12 13
b 6 9 10 21 22
b 7 3 4 15 25 37 49 61 73 85 97 107
b 8 4 15 25 27 37 49 61 73 85 97 107
b 9 4 15 27 37 39 49 61 73 85 97 107
b 10 4 15 27 39 49 51 61 73 85 97 107
b 11 4 15 27 39 51 61 63 73 85 97 107
b 12 4 15 27 39 51 63 73 75 85 97 107
b 13 4 15 27 39 51 63 75 85 87 97 107
b 14 4 15 27 39 51 63 75 87 88 97 107
b 15 4 15 27 39 51 63 75 76 87 88
b 16 4 15 27 39 51 63 64 75 76 88
b 17 4 15 27 39 51 52 63 64 76 88
b 18 4 15 27 39 40 51 52 64 76 88
b 19 4 15 27 28 39 40 52 64 76 88
b 20 4 15 16 27 28 40 52 64 76 88
b 21 4 16 28 40 52 64 66 76 88
b 22 4 16 28 40 52 54 64 66 76
b 23 4 16 28 40 42 52 54 64 66
b 24 4 16 28 30 40 42 52 54 66
b 25 4 16 18 28 30 40 42 54 66
b 26 4 8 16 18 28 30 42 54 66
b 27 4 6 8 16 18 28
b 28 4 5 6 16
b 29 6 7 8 18
b 30 6 16 17 18 28
b 31 8 18 20 30 42 54 66
b 32 8 20 30 32 42 54 66
b 33 8 20 32 33 42 54 66
b 34 8 20 21 32 33
b 35 8 9 20 21 33
b 36 9 21 22 33
b 37 32 33 42 43 54 66
b 38 33 43 54 55 66
b 39 33 43 44 55
b 40 20 30 31 32 42
b 41 8 18 19 20 30
b 42 18 28 29 30 40
b 43 30 40 41 42 52
b 44 42 52 53 54 64
b 45 54 64 65 66 76
b 46 66 76 77 88
b 47 87 88 97 107 109
b 48 87 88 97 98 109
b 49 97 107 108 109
b 50 75 85 86 87 97
b 51 63 73 74 75 85
b 52 51 61 62 63 73
b 53 39 49 50 51 61
b 54 27 37 38 39 49
b 55 15 25 26 27 37
b 56 3 15 25 37 49 61 73 85 95 97 107
b 57 3 15 25 37 49 61 73 83 85 95 107
b 58 3 15 25 37 49 61 71 73 83 95 107
b 59 3 15 25 37 49 59 61 71 83 95 107
b 60 3 15 25 37 47 49 59 71 83 95 107
b 61 3 15 25 35 37 47 59 71 83 95 107
b 62 3 15 23 25 35 47 59 71 83 95 107
b 63 3 13 15 23 25 35
b 64 3 12 13 23
b 65 3 13 14 15 25
b 66 13 23 24 25 35
b 67 23 35 47 59 71 83 95 105 107
b 68 23 35 47 59 71 83 93 95 105
b 69 23 35 47 59 71 81 83 93 105
b 70 23 35 47 59 69 71 81 93 105
b 71 23 35 47 57 59 69 81 93 105
b 72 23 35 47 56 57 69 81 93 105
b 73 23 35 46 47 56 57
b 74 23 35 45 46 56
b 75 23 34 35 45
b 76 56 57 69 81 93 103 105
b 77 56 57 69 81 92 93 103
b 78 56 57 69 80 81 92 103
b 79 56 57 68 69 80 92 103
b 80 56 68 78 80 92 103
b 81 56 67 68 78
b 82 68 78 80 90 92 103
b 83 68 78 79 80 90
b 84 78 80 90 91 92 103
b 85 78 90 91 101 103
b 86 91 101 102 103
b 87 93 103 104 105
b 88 47 57 58 59 69
b 89 59 69 70 71 81
b 90 71 81 82 83 93
b 91 83 93 94 95 105
b 92 95 105 106 107
b 93 25 35 36 37 47
b 94 37 47 48 49 59
b 95 49 59 60 61 71
b 96 61 71 72 73 83
b 97 73 83 84 85 95
b 98 85 95 96 97 107
b 99 78 89 90 101
b 100 88 98 99 109
1 5
2 6
3 99
4 100
5 64
6 36
7 8
7 56
8 9
8 55
9 10
9 54
10 11
10 53
11 12
11 52
12 13
12 51
13 14
13 50
14 15
14 47
15 16
16 17
17 18
18 19
19 20
20 21
21 22
21 46
22 23
22 45
23 24
23 44
24 25
24 43
25 26
25 42
26 27
26 31
27 28
27 29
27 30
31 32
31 41
32 33
32 40
33 34
33 37
34 35
35 36
37 38
38 39
47 48
47 49
48 100
56 57
56 98
57 58
57 97
58 59
58 96
59 60
59 95
60 61
60 94
61 62
61 93
62 63
62 67
63 64
63 65
63 66
67 68
67 92
68 69
68 91
69 70
69 90
70 71
70 89
71 72
71 88
72 73
72 76
73 74
74 75
76 77
76 87
77 78
78 79
79 80
80 81
80 82
82 83
82 84
84 85
85 99
85 86
